Problem:    
Rows:       113
Columns:    45 (34 integer, 34 binary)
Non-zeros:  354
Status:     INTEGER OPTIMAL
Objective:  value = 14.44279 (MINimum)

   No.   Row name        Activity     Lower bound   Upper bound
------ ------------    ------------- ------------- -------------
     1 r.5                   1014.44             0               
     2 r.6                  -985.557        -990.7               
     3 r.7                   14.4428             0               
     4 r.8                   14.4428      -993.468               
     5 r.9                   14.4428             0               
     6 r.10                  14.4428      -983.816               
     7 r.11                  1014.44             0               
     8 r.12                 -985.557      -990.033               
     9 r.13                  14.4428             0               
    10 r.14                  14.4428      -995.854               
    11 r.15                  1014.44             0               
    12 r.16                 -995.524      -998.088               
    13 r.17                  1014.44             0               
    14 r.18                 -994.857      -997.703               
    15 r.19                  14.4428             0               
    16 r.20                  14.4428      -997.313               
    17 r.21                  14.4428             0               
    18 r.22                  4.48652      -999.872               
    19 r.23                  1014.44             0               
    20 r.24                 -998.698      -998.698               
    21 r.25                        1             1             = 
    22 r.26                        1             1             = 
    23 r.27                        1             1             = 
    24 r.28                        1             1             = 
    25 r.29                        1             1             = 
    26 r.30                     1001             2               
    27 r.31                    -1001         -1001               
    28 r.32                     2000      -983.816               
    29 r.33                     1001             2               
    30 r.34                    -1001         -1001               
    31 r.35                     2000      -990.033               
    32 r.36                     1001             2               
    33 r.37                    -1001         -1001               
    34 r.38                     2000      -995.854               
    35 r.39                     1001             2               
    36 r.40                    -1001         -1001               
    37 r.41                  1990.03      -998.088               
    38 r.42                        2             2               
    39 r.43                       -2         -1001               
    40 r.44                  -9.3002      -997.703               
    41 r.45                     1000             2               
    42 r.46                    -1000         -1001               
    43 r.47                     2000      -997.313               
    44 r.48                 -988.121        -990.7               
    45 r.49                  11.8793      -993.468               
    46 r.50                 -988.121        -990.7               
    47 r.51                  11.8793      -993.468               
    48 r.52                     1001             2               
    49 r.53                    -1001         -1001               
    50 r.54                     2000        9.3002               
    51 r.55                     1001             2               
    52 r.56                    -1001         -1001               
    53 r.57                     2000       6.53163               
    54 r.58                     1000             2               
    55 r.59                    -1000         -1001               
    56 r.60                     2000      -995.854               
    57 r.61                        2             2               
    58 r.62                       -2         -1001               
    59 r.63                 -9.96686      -998.088               
    60 r.64                     1001             2               
    61 r.65                    -1001         -1001               
    62 r.66                   1990.7      -997.703               
    63 r.67                     1001             2               
    64 r.68                    -1001         -1001               
    65 r.69                     2000      -997.313               
    66 r.70                  11.8793      -983.816               
    67 r.71                 -988.121      -990.033               
    68 r.72                  11.8793      -983.816               
    69 r.73                 -988.121      -990.033               
    70 r.74                     1001             2               
    71 r.75                    -1001         -1001               
    72 r.76                     2000        9.3002               
    73 r.77                     1001             2               
    74 r.78                    -1001         -1001               
    75 r.79                  2009.97       6.53163               
    76 r.80                     1000             2               
    77 r.81                    -1000         -1001               
    78 r.82                     2000       16.1836               
    79 r.83                        2             2               
    80 r.84                       -2         -1001               
    81 r.85                  9.96686       9.96686               
    82 r.86                     1001             2               
    83 r.87                    -1001         -1001               
    84 r.88                   1990.7      -997.703               
    85 r.89                     1001             2               
    86 r.90                    -1001         -1001               
    87 r.91                  2009.97      -997.313               
    88 r.92                  11.8793      -995.854               
    89 r.93                 -998.088      -998.088               
    90 r.94                  11.8793      -995.854               
    91 r.95                 -998.088      -998.088               
    92 r.96                        2             2               
    93 r.97                       -2         -1001               
    94 r.98                   9.3002        9.3002               
    95 r.99                     1000             2               
    96 r.100                   -1000         -1001               
    97 r.101                    2000       6.53163               
    98 r.102                    1001             2               
    99 r.103                   -1001         -1001               
   100 r.104                  2009.3       16.1836               
   101 r.105                    1001             2               
   102 r.106                   -1001         -1001               
   103 r.107                    2000       9.96686               
   104 r.108                    1001             2               
   105 r.109                   -1001         -1001               
   106 r.110                  2009.3       4.14649               
   107 r.111                    1001             2               
   108 r.112                   -1001         -1001               
   109 r.113                 1990.03       1.91241               
   110 r.114                -997.421      -997.703               
   111 r.115                 11.8793      -997.313               
   112 r.116                -997.421      -997.703               
   113 r.117                 11.8793      -997.313               

   No. Column name       Activity     Lower bound   Upper bound
------ ------------    ------------- ------------- -------------
     1 tt                    14.4428             0               
     2 s_1_1        *              1             0             1 
     3 t_1_1                       0             0               
     4 s_2_1        *              0             0             1 
     5 t_2_1                       0             0               
     6 s_1_2        *              0             0             1 
     7 t_1_2                       0             0               
     8 s_2_2        *              1             0             1 
     9 t_2_2                       0             0               
    10 s_1_3        *              0             0             1 
    11 t_1_3                       0             0               
    12 s_2_3        *              1             0             1 
    13 t_2_3                 9.96686             0               
    14 s_1_4        *              1             0             1 
    15 t_1_4                  9.3002             0               
    16 s_2_4        *              0             0             1 
    17 t_2_4                       0             0               
    18 s_1_5        *              0             0             1 
    19 t_1_5                 11.8793             0               
    20 s_2_5        *              1             0             1 
    21 t_2_5                 11.8793             0               
    22 r_1_1_2      *              1             0             1 
    23 u_1_1_2      *              0             0             1 
    24 r_2_1_2      *              1             0             1 
    25 u_2_1_2      *              0             0             1 
    26 r_1_1_3      *              1             0             1 
    27 u_1_1_3      *              0             0             1 
    28 r_2_1_3      *              1             0             1 
    29 u_2_1_3      *              0             0             1 
    30 r_1_1_4      *              0             0             1 
    31 u_1_1_4      *              0             0             1 
    32 r_2_1_4      *              1             0             1 
    33 u_2_1_4      *              0             0             1 
    34 r_1_2_3      *              1             0             1 
    35 u_1_2_3      *              0             0             1 
    36 r_2_2_3      *              0             0             1 
    37 u_2_2_3      *              0             0             1 
    38 r_1_2_4      *              1             0             1 
    39 u_1_2_4      *              0             0             1 
    40 r_2_2_4      *              1             0             1 
    41 u_2_2_4      *              0             0             1 
    42 r_1_3_4      *              1             0             1 
    43 u_1_3_4      *              0             0             1 
    44 r_2_3_4      *              1             0             1 
    45 u_2_3_4      *              0             0             1 

Integer feasibility conditions:

KKT.PE: max.abs.err = 0.00e+00 on row 0
        max.rel.err = 0.00e+00 on row 0
        High quality

KKT.PB: max.abs.err = 0.00e+00 on row 0
        max.rel.err = 0.00e+00 on row 0
        High quality

End of output
